c Staircase at least one
p cnf 40 80
-5 22 0
-4 22 0
-22 5 4 0
-22 21 0
-3 21 0
-21 22 3 0
-21 20 0
-2 20 0
-20 21 2 0
-20 19 0
-1 19 0
-19 20 1 0
-10 26 0
-9 26 0
-26 10 9 0
-26 25 0
-8 25 0
-25 26 8 0
-25 24 0
-7 24 0
-24 25 7 0
-24 23 0
-6 23 0
-23 24 6 0
-15 30 0
-14 30 0
-30 15 14 0
-30 29 0
-13 29 0
-29 30 13 0
-29 28 0
-12 28 0
-28 29 12 0
-28 27 0
-11 27 0
-27 28 11 0
-6 33 0
-7 33 0
-33 6 7 0
-33 34 0
-8 34 0
-34 33 8 0
-34 35 0
-9 35 0
-35 34 9 0
-35 23 0
-10 23 0
-23 35 10 0
-11 36 0
-12 36 0
-36 11 12 0
-36 37 0
-13 37 0
-37 36 13 0
-37 38 0
-14 38 0
-38 37 14 0
-38 27 0
-15 27 0
-27 38 15 0
-16 39 0
-17 39 0
-39 16 17 0
-39 40 0
-18 40 0
-40 39 18 0
19 0
20 6 0
21 33 0
22 34 0
5 35 0
23 0
24 11 0
25 36 0
26 37 0
10 38 0
27 0
28 16 0
29 39 0
30 40 0
